c Random Network
p max    10      20
n         1  s
n        10  t
a       9      10      39
a       8      10      18
a       1       4      30
a       1       2       7
a       6       8      19
a       2       7      31
a       3       1       4
a       4       2      35
a       8       6      17
a       2       3       4
a       7       9      45
a       3       5      29
a       2       5      32
a       2       8      44
a       9       7      42
a       2       1       9
a       1       9       7
a      10       8      41
a       8       2       6
a      10       6      21
